(set-option :produce-models true); benchmark generated from python API
(set-info :status unknown)
(declare-fun l_0_0_6 () Real)
(declare-fun l_0_0_5 () Real)
(declare-fun l_0_0_1 () Real)
(declare-fun l_0_0_2 () Real)
(declare-fun _a_0_ () Real)
(declare-fun l_0_0_4 () Real)
(declare-fun _a_1_ () Real)
(declare-fun _a_2_ () Real)
(declare-fun l_0_0_3 () Real)
(declare-fun l_0_1_7 () Real)
(declare-fun l_0_1_4 () Real)
(declare-fun l_0_1_1 () Real)
(declare-fun l_0_1_8 () Real)
(declare-fun l_0_1_5 () Real)
(declare-fun l_0_1_2 () Real)
(declare-fun l_0_1_9 () Real)
(declare-fun l_0_1_6 () Real)
(declare-fun l_0_1_3 () Real)
(declare-fun l_0_2_9 () Real)
(declare-fun l_0_2_8 () Real)
(declare-fun l_0_2_6 () Real)
(declare-fun l_0_2_5 () Real)
(declare-fun l_0_2_4 () Real)
(declare-fun l_0_2_2 () Real)
(declare-fun l_0_2_1 () Real)
(declare-fun l_0_2_3 () Real)
(declare-fun l_0_2_7 () Real)
(assert
 (let ((?x40 (* l_0_0_6 l_0_0_6)))
 (let ((?x38 (* l_0_0_5 l_0_0_5)))
 (let ((?x36 (* l_0_0_1 l_0_0_1)))
 (let ((?x41 (- (- (+ (- _a_0_ (* (* 160.0 l_0_0_1) l_0_0_2)) ?x36) ?x38) ?x40)))
 (= ?x41 0.0))))))
(assert
 (= (- _a_1_ (* l_0_0_4 l_0_0_4)) 0.0))
(assert
 (let ((?x91 (- (- _a_2_ (* (* 80.0 l_0_0_1) l_0_0_1)) (* (* 2.0 l_0_0_4) l_0_0_5))))
 (= ?x91 0.0)))
(assert
 (let ((?x111 (- (* (* 2.0 l_0_0_1) l_0_0_2) (* (* 80.0 l_0_0_2) l_0_0_2))))
 (= (- ?x111 (* (* 80.0 l_0_0_3) l_0_0_3)) 0.0)))
(assert
 (= (+ (* l_0_0_2 l_0_0_2) (* l_0_0_3 l_0_0_3)) 0.0))
(assert
 (>= l_0_0_1 0.0))
(assert
 (>= l_0_0_3 0.0))
(assert
 (>= l_0_0_4 0.0))
(assert
 (>= l_0_0_6 0.0))
(assert
 (let ((?x143 (* l_0_1_7 l_0_1_7)))
 (let ((?x139 (* l_0_1_4 l_0_1_4)))
 (let ((?x141 (* 82.0 ?x139)))
 (= (- (- (+ (* (* (- _a_1_) l_0_1_1) l_0_1_1) ?x141) ?x143) 790.0) 0.0)))))
(assert
 (let ((?x139 (* l_0_1_4 l_0_1_4)))
 (let ((?x171 (* 81.0 ?x139)))
 (let ((?x165 (- (* (* (* (- 2.0) _a_1_) l_0_1_1) l_0_1_2) (* (* _a_2_ l_0_1_1) l_0_1_1))))
 (let ((?x175 (- (+ (+ ?x165 (* (* 164.0 l_0_1_4) l_0_1_5)) ?x171) (* (* 2.0 l_0_1_7) l_0_1_8))))
 (= (- ?x175 69.0) 0.0))))))
(assert
 (let ((?x224 (* l_0_1_9 l_0_1_9)))
 (let ((?x222 (* l_0_1_8 l_0_1_8)))
 (let ((?x219 (* l_0_1_6 l_0_1_6)))
 (let ((?x220 (* 82.0 ?x219)))
 (let ((?x216 (* l_0_1_5 l_0_1_5)))
 (let ((?x217 (* 82.0 ?x216)))
 (let ((?x139 (* l_0_1_4 l_0_1_4)))
 (let ((?x206 (- (* (* (- _a_0_) l_0_1_1) l_0_1_1) (* _a_1_ (+ (* l_0_1_2 l_0_1_2) (* l_0_1_3 l_0_1_3))))))
 (let ((?x214 (+ (- ?x206 (* (* (* 2.0 _a_2_) l_0_1_1) l_0_1_2)) (* (* 162.0 l_0_1_4) l_0_1_5))))
 (= (+ (- (- (+ (+ (- ?x214 ?x139) ?x217) ?x220) ?x222) ?x224) 1.0) 0.0)))))))))))
(assert
 (let ((?x273 (- (* (* (* (- 2.0) _a_0_) l_0_1_1) l_0_1_2) (* _a_2_ (+ (* l_0_1_2 l_0_1_2) (* l_0_1_3 l_0_1_3))))))
 (let ((?x278 (+ (- ?x273 (* (* 2.0 l_0_1_4) l_0_1_5)) (* 81.0 (* l_0_1_5 l_0_1_5)))))
 (= (+ ?x278 (* 81.0 (* l_0_1_6 l_0_1_6))) 0.0))))
(assert
 (let ((?x219 (* l_0_1_6 l_0_1_6)))
 (let ((?x216 (* l_0_1_5 l_0_1_5)))
 (let ((?x308 (- (* (- _a_0_) (+ (* l_0_1_2 l_0_1_2) (* l_0_1_3 l_0_1_3))) ?x216)))
 (= (- ?x308 ?x219) 0.0)))))
(assert
 (>= l_0_1_1 0.0))
(assert
 (>= l_0_1_3 0.0))
(assert
 (>= l_0_1_4 0.0))
(assert
 (>= l_0_1_6 0.0))
(assert
 (>= l_0_1_7 0.0))
(assert
 (>= l_0_1_9 0.0))
(assert
 (let ((?x359 (* l_0_2_9 l_0_2_9)))
 (let ((?x357 (* l_0_2_8 l_0_2_8)))
 (let ((?x349 (* l_0_2_4 l_0_2_4)))
 (let ((?x344 (* (/ 2709.0 10000000.0) _a_2_)))
 (let ((?x339 (- (+ (* (* (- _a_0_) l_0_2_1) l_0_2_1) (* (/ 9997291.0 10000000.0) _a_0_)) (* _a_1_ (+ (* l_0_2_2 l_0_2_2) (* l_0_2_3 l_0_2_3))))))
 (let ((?x348 (- (- (- ?x339 (* (* (* 2.0 _a_2_) l_0_2_1) l_0_2_2)) ?x344) (* (* 162.0 l_0_2_4) l_0_2_5))))
 (let ((?x356 (- (- (+ ?x348 ?x349) (* (* 82.0 l_0_2_5) l_0_2_5)) (* (* 82.0 l_0_2_6) l_0_2_6))))
 (= (- (- ?x356 ?x357) ?x359) 0.0)))))))))
(assert
 (let ((?x421 (- (- (* 1.0 _a_0_) (* (* (* 2.0 _a_1_) l_0_2_1) l_0_2_2)) (* (* _a_2_ l_0_2_1) l_0_2_1))))
 (let ((?x428 (- (- (+ ?x421 _a_2_) (* (* 164.0 l_0_2_4) l_0_2_5)) (* (* 81.0 l_0_2_4) l_0_2_4))))
 (= (- ?x428 (* (* 2.0 l_0_2_7) l_0_2_8)) 0.0))))
(assert
 (let ((?x468 (- (- (* (* (* (- 2.0) _a_0_) l_0_2_1) l_0_2_2) (* (/ 2709.0 5000000.0) _a_0_)) (* _a_2_ (+ (* l_0_2_2 l_0_2_2) (* l_0_2_3 l_0_2_3))))))
 (let ((?x474 (- (+ ?x468 (* (* 2.0 l_0_2_4) l_0_2_5)) (* (* 81.0 l_0_2_5) l_0_2_5))))
 (= (- ?x474 (* (* 81.0 l_0_2_6) l_0_2_6)) 0.0))))
(assert
 (let ((?x526 (* l_0_2_7 l_0_2_7)))
 (let ((?x521 (* (/ 1.0 2.0) _a_2_)))
 (let ((?x519 (+ (- (* (/ 1.0 4.0) _a_0_) (* (* _a_1_ l_0_2_1) l_0_2_1)) _a_1_)))
 (= (- (- (+ ?x519 ?x521) (* (* 82.0 l_0_2_4) l_0_2_4)) ?x526) 0.0)))))
(assert
 (let ((?x401 (* l_0_2_6 l_0_2_6)))
 (let ((?x395 (* l_0_2_5 l_0_2_5)))
 (let ((?x544 (* (/ 7338681.0 100000000000000.0) _a_0_)))
 (let ((?x545 (+ (* (- _a_0_) (+ (* l_0_2_2 l_0_2_2) (* l_0_2_3 l_0_2_3))) ?x544)))
 (= (+ (+ ?x545 ?x395) ?x401) 0.0))))))
(assert
 (>= l_0_2_1 0.0))
(assert
 (>= l_0_2_3 0.0))
(assert
 (>= l_0_2_4 0.0))
(assert
 (>= l_0_2_6 0.0))
(assert
 (>= l_0_2_7 0.0))
(assert
 (>= l_0_2_9 0.0))
(check-sat)
(get-model)